500
500
400
398
398
397
397
396
395
394
393
392
391
391
391
391
390
390
389
389
388
387
386
386
385
385
384
384
384
384
383
383
381
381
381
380
380
380
379
378
378
378
377
376
376
376
376
375
374
374
374
373
371
371
370
370
370
370
369
369
368
367
366
366
366
365
365
365
365
364
363
363
361
361
361
360
360
359
358
357
357
356
355
354
354
354
352
352
351
349
347
347
347
346
346
345
344
344
343
342
342
341
340
340
339
339
339
339
339
339
338
338
337
337
335
335
334
334
334
333
333
332
332
331
331
331
330
330
329
329
328
327
326
326
326
326
324
324
324
324
324
324
324
324
323
322
321
321
321
320
318
317
317
317
316
316
314
314
314
313
313
313
313
312
312
312
312
312
311
310
310
310
309
308
308
306
306
306
305
303
303
302
302
300
300
299
299
299
298
298
298
296
295
294
293
292
292
291
291
290
290
289
284
283
283
282
281
280
279
279
279
278
276
276
275
275
274
273
272
270
270
268
268
268
268
267
266
265
264
263
261
261
260
259
259
259
258
258
255
254
254
253
253
251
251
248
247
247
246
245
245
244
244
243
243
241
239
239
238
238
237
237
236
236
236
236
235
233
233
233
232
231
230
230
229
229
229
228
227
226
225
225
225
223
223
223
221
220
220
220
219
219
217
216
216
214
214
214
214
213
212
211
211
209
209
207
206
205
204
203
203
202
202
202
201
200
200
200
199
199
199
196
195
194
194
194
194
193
193
193
193
191
190
188
187
186
186
185
184
184
183
182
181
180
180
179
178
177
177
176
175
174
173
173
172
171
171
171
170
170
169
169
169
168
167
167
165
164
164
161
160
160
159
159
159
155
154
153
150
150
150
149
148
146
145
145
143
143
142
141
141
141
141
140
140
139
138
138
138
137
136
136
136
135
133
132
132
130
129
129
127
126
126
126
125
123
123
123
119
118
117
117
117
116
115
115
115
113
112
112
111
110
109
107
107
106
106
106
106
105
104
104
104
103
101
101
100
99
97
96
95
93
92
92
92
91
90
90
89
89
87
84
84
82
81
81
80
79
79
78
76
76
74
74
72
71
70
69
68
67
66
66
66
65
65
63
62
61
61
60
60
60
59
59
58
58
56
55
55
53
52
51
